(set-info :smt-lib-version 2.6)
(set-logic QF_AX)
(set-info :source |
Benchmarks used in the followin paper:
Big proof engines as little proof engines: new results on rewrite-based satisfiability procedure
Alessandro Armando, Maria Paola Bonacina, Silvio Ranise, Stephan Schulz. 
PDPAR'05
http://www.ai.dist.unige.it/pdpar05/


|)
(set-info :category "crafted")
(set-info :status unsat)
(declare-sort Index 0)
(declare-sort Element 0)
(declare-fun a_665 () (Array Index Element))
(declare-fun a_667 () (Array Index Element))
(declare-fun a_669 () (Array Index Element))
(declare-fun a_671 () (Array Index Element))
(declare-fun a_673 () (Array Index Element))
(declare-fun a_675 () (Array Index Element))
(declare-fun a_677 () (Array Index Element))
(declare-fun a_679 () (Array Index Element))
(declare-fun a_681 () (Array Index Element))
(declare-fun a_683 () (Array Index Element))
(declare-fun a_685 () (Array Index Element))
(declare-fun a_687 () (Array Index Element))
(declare-fun a_689 () (Array Index Element))
(declare-fun a_691 () (Array Index Element))
(declare-fun a_693 () (Array Index Element))
(declare-fun a_695 () (Array Index Element))
(declare-fun a_697 () (Array Index Element))
(declare-fun a_699 () (Array Index Element))
(declare-fun a_700 () (Array Index Element))
(declare-fun a_701 () (Array Index Element))
(declare-fun a_703 () (Array Index Element))
(declare-fun a_705 () (Array Index Element))
(declare-fun a_707 () (Array Index Element))
(declare-fun a_709 () (Array Index Element))
(declare-fun a_711 () (Array Index Element))
(declare-fun a_713 () (Array Index Element))
(declare-fun a_715 () (Array Index Element))
(declare-fun a_717 () (Array Index Element))
(declare-fun a_719 () (Array Index Element))
(declare-fun a_721 () (Array Index Element))
(declare-fun a_723 () (Array Index Element))
(declare-fun a_725 () (Array Index Element))
(declare-fun a_727 () (Array Index Element))
(declare-fun a_729 () (Array Index Element))
(declare-fun a_731 () (Array Index Element))
(declare-fun a_733 () (Array Index Element))
(declare-fun e_664 () Element)
(declare-fun e_666 () Element)
(declare-fun e_668 () Element)
(declare-fun e_670 () Element)
(declare-fun e_672 () Element)
(declare-fun e_674 () Element)
(declare-fun e_676 () Element)
(declare-fun e_678 () Element)
(declare-fun e_680 () Element)
(declare-fun e_682 () Element)
(declare-fun e_684 () Element)
(declare-fun e_686 () Element)
(declare-fun e_688 () Element)
(declare-fun e_690 () Element)
(declare-fun e_692 () Element)
(declare-fun e_694 () Element)
(declare-fun e_696 () Element)
(declare-fun e_698 () Element)
(declare-fun e_702 () Element)
(declare-fun e_704 () Element)
(declare-fun e_706 () Element)
(declare-fun e_708 () Element)
(declare-fun e_710 () Element)
(declare-fun e_712 () Element)
(declare-fun e_714 () Element)
(declare-fun e_716 () Element)
(declare-fun e_718 () Element)
(declare-fun e_720 () Element)
(declare-fun e_722 () Element)
(declare-fun e_724 () Element)
(declare-fun e_726 () Element)
(declare-fun e_728 () Element)
(declare-fun e_730 () Element)
(declare-fun e_732 () Element)
(declare-fun a1 () (Array Index Element))
(declare-fun i0 () Index)
(declare-fun i1 () Index)
(declare-fun i2 () Index)
(declare-fun i3 () Index)
(declare-fun i4 () Index)
(declare-fun i5 () Index)
(declare-fun i6 () Index)
(declare-fun i7 () Index)
(declare-fun i8 () Index)
(assert (= a_665 (store a1 i4 e_664)))
(assert (= a_667 (store a_665 i0 e_666)))
(assert (= a_669 (store a_667 i5 e_668)))
(assert (= a_671 (store a_669 i2 e_670)))
(assert (= a_673 (store a_671 i4 e_672)))
(assert (= a_675 (store a_673 i2 e_674)))
(assert (= a_677 (store a_675 i7 e_676)))
(assert (= a_679 (store a_677 i2 e_678)))
(assert (= a_681 (store a_679 i8 e_680)))
(assert (= a_683 (store a_681 i0 e_682)))
(assert (= a_685 (store a_683 i3 e_684)))
(assert (= a_687 (store a_685 i6 e_686)))
(assert (= a_689 (store a_687 i4 e_688)))
(assert (= a_691 (store a_689 i1 e_690)))
(assert (= a_693 (store a_691 i4 e_692)))
(assert (= a_695 (store a_693 i2 e_694)))
(assert (= a_697 (store a_695 i7 e_696)))
(assert (= a_699 (store a_697 i0 e_698)))
(assert (= a_700 (store a1 i0 e_666)))
(assert (= a_701 (store a_700 i4 e_664)))
(assert (= a_703 (store a_701 i5 e_702)))
(assert (= a_705 (store a_703 i2 e_704)))
(assert (= a_707 (store a_705 i4 e_706)))
(assert (= a_709 (store a_707 i2 e_708)))
(assert (= a_711 (store a_709 i7 e_710)))
(assert (= a_713 (store a_711 i2 e_712)))
(assert (= a_715 (store a_713 i8 e_714)))
(assert (= a_717 (store a_715 i0 e_716)))
(assert (= a_719 (store a_717 i3 e_718)))
(assert (= a_721 (store a_719 i6 e_720)))
(assert (= a_723 (store a_721 i1 e_722)))
(assert (= a_725 (store a_723 i4 e_724)))
(assert (= a_727 (store a_725 i4 e_726)))
(assert (= a_729 (store a_727 i2 e_728)))
(assert (= a_731 (store a_729 i0 e_730)))
(assert (= a_733 (store a_731 i7 e_732)))
(assert (= e_664 (select a1 i0)))
(assert (= e_666 (select a1 i4)))
(assert (= e_668 (select a_667 i2)))
(assert (= e_670 (select a_667 i5)))
(assert (= e_672 (select a_671 i2)))
(assert (= e_674 (select a_671 i4)))
(assert (= e_676 (select a_675 i2)))
(assert (= e_678 (select a_675 i7)))
(assert (= e_680 (select a_679 i0)))
(assert (= e_682 (select a_679 i8)))
(assert (= e_684 (select a_683 i6)))
(assert (= e_686 (select a_683 i3)))
(assert (= e_688 (select a_687 i1)))
(assert (= e_690 (select a_687 i4)))
(assert (= e_692 (select a_691 i2)))
(assert (= e_694 (select a_691 i4)))
(assert (= e_696 (select a_695 i0)))
(assert (= e_698 (select a_695 i7)))
(assert (= e_702 (select a_701 i2)))
(assert (= e_704 (select a_701 i5)))
(assert (= e_706 (select a_705 i2)))
(assert (= e_708 (select a_705 i4)))
(assert (= e_710 (select a_709 i2)))
(assert (= e_712 (select a_709 i7)))
(assert (= e_714 (select a_713 i0)))
(assert (= e_716 (select a_713 i8)))
(assert (= e_718 (select a_717 i6)))
(assert (= e_720 (select a_717 i3)))
(assert (= e_722 (select a_721 i4)))
(assert (= e_724 (select a_721 i1)))
(assert (= e_726 (select a_725 i2)))
(assert (= e_728 (select a_725 i4)))
(assert (= e_730 (select a_729 i7)))
(assert (= e_732 (select a_729 i0)))
(assert (not (= a_699 a_733)))
(check-sat)
(exit)
